CPXPARAM_MIP_Tolerances_MIPGap                   0
Lazy constraint(s) or lazy constraint callback is present.
    Disabling dual reductions (CPX_PARAM_REDUCE) in presolve.
    Disabling non-linear reductions (CPX_PARAM_PRELINEAR) in presolve.
         Disabling repeat represolve because of lazy constraint/incumbent callback.
Tried aggregator 1 time.
MIP Presolve eliminated 2405 rows and 6 columns.
MIP Presolve modified 1 coefficients.
Reduced MIP has 424 rows, 2461 columns, and 888 nonzeros.
Reduced MIP has 2103 binaries, 0 generals, 0 SOSs, and 0 indicators.
Presolve time = 0.00 sec. (1.55 ticks)
Probing time = 0.00 sec. (0.41 ticks)
Clique table members: 131.
MIP emphasis: balance optimality and feasibility.
MIP search method: traditional branch-and-cut.
Parallel mode: none, using 1 thread.
Root relaxation solution time = 0.00 sec. (1.22 ticks)

        Nodes                                         Cuts/
   Node  Left     Objective  IInf  Best Integer    Best Bound    ItCnt     Gap         Variable B NodeID Parent  Depth

      0     0        6.0000    20                      6.0000       20         
      0     0       19.0000     3                   Cuts: 103      105         
      0     0       19.0000     9                    Cuts: 15      112         
      0     0       19.0000     6                  MIRcuts: 3      114         
      0     0       19.0000     5                  MIRcuts: 1      117         
*     0+    0                           48.0000       19.0000            60.42%
      0     2       19.0000     8       48.0000       19.0000      117   60.42%                        0             0
Elapsed time = 0.11 sec. (47.53 ticks, tree = 0.01 MB, solutions = 1)
*    30    22      integral     0       25.0000       19.0000      323   24.00%
*    40     1      integral     0       19.0000       19.0000      353    0.00%

Clique cuts applied:  79
Cover cuts applied:  2
Mixed integer rounding cuts applied:  21
User cuts applied:  244

Root node processing (before b&c):
  Real time             =    0.11 sec. (47.59 ticks)
Sequential b&c:
  Real time             =    0.06 sec. (48.86 ticks)
                          ------------
Total (root+branch&cut) =    0.17 sec. (96.45 ticks)
